Route 1: 10 6 29 2 42 45 33 13 12 16 15 3 47 25 20 71 5 19 9 54 146 44 4 11 14 7 1 34 68 52

Route 2: 67 63 40 64 26 39 38 76 8 22 18 57 84 53 56 27 37 43 31 55 17 49 85 82 66 58 51 21 23

Route 3: 178 41 183 65 35 28 59 60 46 30 32 50 48 62 24 61 72 122 101 100 81 112 120 125 109 95 129 111 114 36

Route 4: 104 86 93 94 99 98 78 70 108 73 77 131 96 103 74 80 69 75 88 87 79 91 106 159 83

Route 5: 137 167 119 102 107 110 138 143 128 126 90 89 145 127 97 123 121 124 117 92 160 176 157 105

Route 6: 132 144 136 196 142 116 115 113 118 182 141 139 130 152 149 135 154

Route 7: 171 148 153 162 164 140 166 169 191 150 151 134 133 155 147 158 190 156 168 163 170 165

Route 8: 173 198 187 174 192 177 172 181 185 180

Route 9: 200 188 184 175 199 179 189 193 194 161 197 186 195

Vehicles: 9

Distance: 6293.21

